data;
param nombreJob := 5;
param nombreRessource := 3;
param duree := 1 4 2 10 3 4 4 4 5 10;
param capaciteRessource := 1 7 2 14 3 11;
param besoinRessource : 1 2 3 :=
                    1   1 8 6
                    2   3 8 9
                    3   3 2 2
                    4   1 3 6
                    5   3 2 1;
end;

